40	100	100	100
50	20	100
44	23	100
23	50	100
52	92	100
89	93	100
29	1	100
74	65	100
65	30	100
84	95	100
95	54	100
88	30	100
8	12	100
13	91	100
24	25	100
25	37	100
82	43	100
16	80	100
59	92	100
51	90	100
11	86	100
93	95	100
89	74	100
44	79	100
21	91	100
32	51	100
88	62	100
41	12	100
36	94	100
61	2	100
39	19	100
32	40	100
91	9	100
10	50	100
11	12	100
59	68	100
15	54	100
31	51	100
7	84	100
44	11	100
69	95	100
